row=7;
Board=[|-1,5,1,8,6,-1,9,-1,3,0|8,6,9,-1,4,1,-1,0,7,5|-1,2,-1,-1,-1,5,-1,1,6,3|-1,8,5,-1,-1,6,-1,-1,-1,4|4,-1,9,-1,-1,2,8,5,-1,-1|-1,-1,-1,5,6,0,9,-1,8,3|-1,-1,-1,2,-1,8,-1,3,5,-1|];
bottom=[36,30,41,27,34,29,40,20,37,21]